(set-info :smt-lib-version 2.6)
(set-logic UF)
(set-info :source |Benchmarks from the paper: "Extending Sledgehammer with SMT Solvers" by Jasmin Blanchette, Sascha Bohme, and Lawrence C. Paulson, CADE 2011.  Translated to SMT2 by Andrew Reynolds and Morgan Deters.|)
(set-info :category "industrial")
(set-info :status unknown)
(declare-sort S1 0)
(declare-sort S2 0)
(declare-sort S3 0)
(declare-sort S4 0)
(declare-sort S5 0)
(declare-sort S6 0)
(declare-sort S7 0)
(declare-sort S8 0)
(declare-sort S9 0)
(declare-sort S10 0)
(declare-sort S11 0)
(declare-sort S12 0)
(declare-sort S13 0)
(declare-sort S14 0)
(declare-sort S15 0)
(declare-fun f1 () S1)
(declare-fun f2 () S1)
(declare-fun f3 (S3 S2) S1)
(declare-fun f4 (S4 S2) S3)
(declare-fun f5 () S4)
(declare-fun f6 () S2)
(declare-fun f7 () S4)
(declare-fun f8 (S5 S2) S2)
(declare-fun f9 (S6 S2) S5)
(declare-fun f10 () S6)
(declare-fun f11 () S6)
(declare-fun f12 () S5)
(declare-fun f13 () S5)
(declare-fun f14 () S5)
(declare-fun f15 () S2)
(declare-fun f16 () S2)
(declare-fun f17 () S2)
(declare-fun f18 (S7 S2) S4)
(declare-fun f19 () S7)
(declare-fun f20 () S2)
(declare-fun f21 () S3)
(declare-fun f22 (S8 S9) S9)
(declare-fun f23 (S10 S9) S8)
(declare-fun f24 () S10)
(declare-fun f25 () S9)
(declare-fun f26 (S11 S2) S9)
(declare-fun f27 () S11)
(declare-fun f28 (S12 S9) S1)
(declare-fun f29 (S13 S9) S12)
(declare-fun f30 () S13)
(declare-fun f31 () S13)
(declare-fun f32 () S10)
(declare-fun f33 () S9)
(declare-fun f34 (S14 S9) S2)
(declare-fun f35 (S15 S2) S14)
(declare-fun f36 () S15)
(declare-fun f37 () S2)
(declare-fun f38 () S6)
(declare-fun f39 () S10)
(assert (not (= f1 f2)))
(assert (not (exists ((?v0 S2)) (let ((?v_0 (f8 (f9 f10 (f8 (f9 f11 (f8 f12 (f8 f13 (f8 f13 (f8 f14 f15))))) f16)) f17))) (and (and (= (f3 (f4 f5 f6) ?v0) f1) (and (= (f3 (f4 f7 ?v0) ?v_0) f1) (= (f3 (f4 (f18 f19 f20) ?v0) ?v_0) f1))) (forall ((?v1 S2)) (=> (and (= (f3 (f4 f5 f6) ?v1) f1) (and (= (f3 (f4 f7 ?v1) ?v_0) f1) (= (f3 (f4 (f18 f19 f20) ?v1) ?v_0) f1))) (= ?v1 ?v0))))))))
(assert (= (f3 (f4 f7 f6) (f8 (f9 f10 (f8 (f9 f11 (f8 f12 (f8 f13 (f8 f13 (f8 f14 f15))))) f16)) f17)) f1))
(assert (= (f3 (f4 f7 f6) (f8 (f9 f10 (f8 (f9 f11 (f8 f12 (f8 f13 (f8 f13 (f8 f14 f15))))) f16)) f17)) f1))
(assert (= (f3 f21 (f8 (f9 f10 (f8 (f9 f11 (f8 f12 (f8 f13 (f8 f13 (f8 f14 f15))))) f16)) f17)) f1))
(assert (forall ((?v0 S2)) (=> (= (f3 (f4 f5 f6) ?v0) f1) (=> (= (f3 (f4 f7 ?v0) (f8 f12 (f8 f13 (f8 f14 f15)))) f1) (or (= ?v0 f6) (= ?v0 f17))))))
(assert (forall ((?v0 S2) (?v1 S2) (?v2 S2)) (=> (= (f3 (f4 f7 f6) ?v0) f1) (=> (= ?v0 (f8 (f9 f10 ?v1) (f8 (f9 f11 ?v0) ?v2))) (=> (= (f3 (f4 f5 f6) ?v1) f1) (= (f3 (f4 f5 ?v2) f17) f1))))))
(assert (forall ((?v0 S2) (?v1 S2) (?v2 S2)) (=> (= (f3 (f4 f7 f6) ?v0) f1) (=> (= ?v0 (f8 (f9 f10 ?v1) (f8 (f9 f11 ?v0) ?v2))) (=> (= (f3 (f4 f7 ?v1) ?v0) f1) (= (f3 (f4 f5 f17) ?v2) f1))))))
(assert (= (f3 (f4 f5 f6) (f8 f12 (f8 f13 (f8 f14 f15)))) f1))
(assert (forall ((?v0 S2)) (= (f8 (f9 f10 f17) (f8 f12 ?v0)) (f8 f12 (f8 (f9 f10 (f8 f14 f15)) ?v0)))))
(assert (forall ((?v0 S2)) (= (f8 (f9 f10 (f8 f12 ?v0)) f17) (f8 f12 (f8 (f9 f10 ?v0) (f8 f14 f15))))))
(assert (forall ((?v0 S2)) (= (= (f3 (f4 f5 f17) (f8 f12 ?v0)) f1) (= (f3 (f4 f5 (f8 f14 f15)) ?v0) f1))))
(assert (forall ((?v0 S2)) (= (= (f3 (f4 f5 (f8 f12 ?v0)) f17) f1) (= (f3 (f4 f5 ?v0) (f8 f14 f15)) f1))))
(assert (forall ((?v0 S2)) (= (= (f3 (f4 f7 f17) (f8 f12 ?v0)) f1) (= (f3 (f4 f7 (f8 f14 f15)) ?v0) f1))))
(assert (forall ((?v0 S2)) (= (= (f3 (f4 f7 (f8 f12 ?v0)) f17) f1) (= (f3 (f4 f7 ?v0) (f8 f14 f15)) f1))))
(assert (= (f8 (f9 f10 f17) f17) (f8 f12 (f8 f13 (f8 f14 f15)))))
(assert (= (f8 (f9 f10 f17) f17) (f8 f12 (f8 f13 (f8 f14 f15)))))
(assert (= (f22 (f23 f24 f25) f25) (f26 f27 (f8 f13 (f8 f14 f15)))))
(assert (forall ((?v0 S2) (?v1 S2)) (= (= (f8 f12 ?v0) (f8 f12 ?v1)) (= ?v0 ?v1))))
(assert (forall ((?v0 S2) (?v1 S2)) (let ((?v_0 (f8 f12 ?v0))) (= (= ?v_0 ?v1) (= ?v1 ?v_0)))))
(assert (forall ((?v0 S2) (?v1 S9)) (let ((?v_0 (f26 f27 ?v0))) (= (= ?v_0 ?v1) (= ?v1 ?v_0)))))
(assert (forall ((?v0 S2) (?v1 S2)) (= (= (f8 f14 ?v0) (f8 f14 ?v1)) (= ?v0 ?v1))))
(assert (= (= f15 f15) true))
(assert (forall ((?v0 S2) (?v1 S2)) (= (= (f8 f13 ?v0) (f8 f13 ?v1)) (= ?v0 ?v1))))
(assert (forall ((?v0 S2) (?v1 S2)) (or (= (f3 (f4 f7 ?v0) ?v1) f1) (or (= ?v0 ?v1) (= (f3 (f4 f7 ?v1) ?v0) f1)))))
(assert (forall ((?v0 S2) (?v1 S2)) (=> (= (f3 (f4 f5 ?v0) ?v1) f1) (=> (= (f3 (f4 f5 ?v1) ?v0) f1) (= ?v0 ?v1)))))
(assert (forall ((?v0 S2) (?v1 S2) (?v2 S2)) (let ((?v_0 (f4 f5 ?v0))) (=> (= (f3 ?v_0 ?v1) f1) (=> (= (f3 (f4 f5 ?v1) ?v2) f1) (= (f3 ?v_0 ?v2) f1))))))
(assert (forall ((?v0 S2) (?v1 S2)) (or (= (f3 (f4 f5 ?v0) ?v1) f1) (= (f3 (f4 f5 ?v1) ?v0) f1))))
(assert (forall ((?v0 S2)) (= (f3 (f4 f5 ?v0) ?v0) f1)))
(assert (forall ((?v0 S2) (?v1 S2) (?v2 S2)) (let ((?v_0 (f9 f11 ?v0))) (= (f8 (f9 f11 (f8 ?v_0 ?v1)) ?v2) (f8 ?v_0 (f8 (f9 f11 ?v1) ?v2))))))
(assert (forall ((?v0 S2) (?v1 S2)) (= (f8 (f9 f11 ?v0) ?v1) (f8 (f9 f11 ?v1) ?v0))))
(assert (forall ((?v0 S2)) (= (f8 f12 ?v0) ?v0)))
(assert (forall ((?v0 S2) (?v1 S2) (?v2 S2)) (let ((?v_0 (f9 f10 ?v0))) (= (f8 (f9 f10 (f8 ?v_0 ?v1)) ?v2) (f8 ?v_0 (f8 (f9 f10 ?v1) ?v2))))))
(assert (forall ((?v0 S2) (?v1 S2) (?v2 S2)) (let ((?v_1 (f9 f10 ?v0)) (?v_0 (f9 f10 ?v1))) (= (f8 ?v_1 (f8 ?v_0 ?v2)) (f8 ?v_0 (f8 ?v_1 ?v2))))))
(assert (forall ((?v0 S2) (?v1 S2)) (= (f8 (f9 f10 ?v0) ?v1) (f8 (f9 f10 ?v1) ?v0))))
(assert (forall ((?v0 S2)) (= (= (f8 (f9 f10 ?v0) ?v0) f6) (= ?v0 f6))))
(assert (forall ((?v0 S2)) (= (= (f8 f14 ?v0) f15) false)))
(assert (forall ((?v0 S2)) (= (= f15 (f8 f14 ?v0)) false)))
(assert (forall ((?v0 S2) (?v1 S2)) (= (= (f8 f14 ?v0) (f8 f13 ?v1)) false)))
(assert (forall ((?v0 S2) (?v1 S2)) (= (= (f8 f13 ?v0) (f8 f14 ?v1)) false)))
(assert (= f15 f6))
(assert (forall ((?v0 S2)) (= (= (f8 f13 ?v0) f15) (= ?v0 f15))))
(assert (forall ((?v0 S2)) (= (= f15 (f8 f13 ?v0)) (= f15 ?v0))))
(assert (= (f8 f13 f15) f15))
(assert (forall ((?v0 S2) (?v1 S2)) (= (= (f3 (f4 f7 (f8 f14 ?v0)) (f8 f14 ?v1)) f1) (= (f3 (f4 f7 ?v0) ?v1) f1))))
(assert (forall ((?v0 S2) (?v1 S2)) (= (= (f3 (f4 f7 (f8 f14 ?v0)) (f8 f14 ?v1)) f1) (= (f3 (f4 f7 ?v0) ?v1) f1))))
(assert (= (= (f3 (f4 f7 f15) f15) f1) false))
(assert (forall ((?v0 S2) (?v1 S2)) (= (= (f3 (f4 f7 (f8 f13 ?v0)) (f8 f13 ?v1)) f1) (= (f3 (f4 f7 ?v0) ?v1) f1))))
(assert (forall ((?v0 S2) (?v1 S2)) (= (= (f3 (f4 f7 (f8 f13 ?v0)) (f8 f13 ?v1)) f1) (= (f3 (f4 f7 ?v0) ?v1) f1))))
(assert (forall ((?v0 S2) (?v1 S2)) (= (= (f3 (f4 f5 (f8 f14 ?v0)) (f8 f14 ?v1)) f1) (= (f3 (f4 f5 ?v0) ?v1) f1))))
(assert (forall ((?v0 S2) (?v1 S2)) (= (= (f3 (f4 f5 (f8 f14 ?v0)) (f8 f14 ?v1)) f1) (= (f3 (f4 f5 ?v0) ?v1) f1))))
(assert (= (= (f3 (f4 f5 f15) f15) f1) true))
(assert (= (f3 (f4 f5 f6) f6) f1))
(assert (forall ((?v0 S2) (?v1 S2)) (= (= (f3 (f4 f5 (f8 f13 ?v0)) (f8 f13 ?v1)) f1) (= (f3 (f4 f5 ?v0) ?v1) f1))))
(assert (forall ((?v0 S2) (?v1 S2)) (= (= (f3 (f4 f5 (f8 f13 ?v0)) (f8 f13 ?v1)) f1) (= (f3 (f4 f5 ?v0) ?v1) f1))))
(assert (not (= f6 f17)))
(assert (forall ((?v0 S2)) (= (f8 (f9 f11 f15) ?v0) f15)))
(assert (forall ((?v0 S2) (?v1 S2)) (= (f8 (f9 f11 (f8 f13 ?v0)) ?v1) (f8 f13 (f8 (f9 f11 ?v0) ?v1)))))
(assert (forall ((?v0 S2) (?v1 S2)) (= (= (f3 (f4 f7 ?v0) ?v1) f1) (and (= (f3 (f4 f5 ?v0) ?v1) f1) (not (= ?v0 ?v1))))))
(assert (forall ((?v0 S2)) (= (f8 (f9 f10 ?v0) f15) ?v0)))
(assert (forall ((?v0 S2)) (= (f8 (f9 f10 f15) ?v0) ?v0)))
(assert (forall ((?v0 S2)) (= (f8 (f9 f10 ?v0) f6) ?v0)))
(assert (forall ((?v0 S2)) (= (f8 (f9 f10 f6) ?v0) ?v0)))
(assert (forall ((?v0 S2) (?v1 S2)) (= (f8 (f9 f10 (f8 f13 ?v0)) (f8 f13 ?v1)) (f8 f13 (f8 (f9 f10 ?v0) ?v1)))))
(assert (forall ((?v0 S2)) (= (f8 f13 ?v0) (f8 (f9 f10 ?v0) ?v0))))
(assert (forall ((?v0 S2) (?v1 S2)) (= (= (f3 (f4 f7 (f8 f12 ?v0)) (f8 f12 ?v1)) f1) (= (f3 (f4 f7 ?v0) ?v1) f1))))
(assert (forall ((?v0 S2)) (= (f8 (f9 f11 ?v0) f17) ?v0)))
(assert (forall ((?v0 S2)) (= (f8 (f9 f11 f17) ?v0) ?v0)))
(assert (forall ((?v0 S2) (?v1 S2)) (= (= (f3 (f4 f5 (f8 f12 ?v0)) (f8 f12 ?v1)) f1) (= (f3 (f4 f5 ?v0) ?v1) f1))))
(assert (forall ((?v0 S2) (?v1 S2) (?v2 S2)) (=> (= (f3 (f4 f7 ?v0) ?v1) f1) (= (f3 (f4 f7 (f8 (f9 f10 ?v0) ?v2)) (f8 (f9 f10 ?v1) ?v2)) f1))))
(assert (forall ((?v0 S2) (?v1 S2)) (= (f8 (f9 f11 (f8 f12 ?v0)) (f8 f12 ?v1)) (f8 f12 (f8 (f9 f11 ?v0) ?v1)))))
(assert (forall ((?v0 S2) (?v1 S2) (?v2 S2)) (let ((?v_0 (f9 f10 ?v2))) (=> (= (f3 (f4 f5 ?v0) ?v1) f1) (= (f3 (f4 f5 (f8 ?v_0 ?v0)) (f8 ?v_0 ?v1)) f1)))))
(assert (forall ((?v0 S2) (?v1 S2) (?v2 S2)) (= (f8 (f9 f11 (f8 (f9 f10 ?v0) ?v1)) ?v2) (f8 (f9 f10 (f8 (f9 f11 ?v0) ?v2)) (f8 (f9 f11 ?v1) ?v2)))))
(assert (forall ((?v0 S2) (?v1 S2) (?v2 S2)) (let ((?v_0 (f9 f11 ?v0))) (= (f8 ?v_0 (f8 (f9 f10 ?v1) ?v2)) (f8 (f9 f10 (f8 ?v_0 ?v1)) (f8 ?v_0 ?v2))))))
(assert (forall ((?v0 S2) (?v1 S2)) (= (f8 (f9 f10 (f8 f12 ?v0)) (f8 f12 ?v1)) (f8 f12 (f8 (f9 f10 ?v0) ?v1)))))
(assert (forall ((?v0 S2)) (= (= (f3 (f4 f7 (f8 (f9 f10 ?v0) ?v0)) f6) f1) (= (f3 (f4 f7 ?v0) f6) f1))))
(assert (forall ((?v0 S2) (?v1 S2)) (let ((?v_1 (f8 f12 ?v0)) (?v_0 (f8 f12 ?v1))) (= (= (f3 (f4 f5 ?v_1) ?v_0) f1) (not (= (f3 (f4 f7 ?v_0) ?v_1) f1))))))
(assert (forall ((?v0 S2) (?v1 S2)) (let ((?v_1 (f26 f27 ?v0)) (?v_0 (f26 f27 ?v1))) (= (= (f28 (f29 f30 ?v_1) ?v_0) f1) (not (= (f28 (f29 f31 ?v_0) ?v_1) f1))))))
(assert (forall ((?v0 S2) (?v1 S2) (?v2 S2)) (let ((?v_0 (f8 f12 ?v2))) (= (f8 (f9 f11 (f8 (f9 f10 ?v0) ?v1)) ?v_0) (f8 (f9 f10 (f8 (f9 f11 ?v0) ?v_0)) (f8 (f9 f11 ?v1) ?v_0))))))
(assert (forall ((?v0 S9) (?v1 S9) (?v2 S2)) (let ((?v_0 (f26 f27 ?v2))) (= (f22 (f23 f32 (f22 (f23 f24 ?v0) ?v1)) ?v_0) (f22 (f23 f24 (f22 (f23 f32 ?v0) ?v_0)) (f22 (f23 f32 ?v1) ?v_0))))))
(assert (forall ((?v0 S2) (?v1 S2) (?v2 S2)) (let ((?v_0 (f9 f11 (f8 f12 ?v0)))) (= (f8 ?v_0 (f8 (f9 f10 ?v1) ?v2)) (f8 (f9 f10 (f8 ?v_0 ?v1)) (f8 ?v_0 ?v2))))))
(assert (forall ((?v0 S2) (?v1 S9) (?v2 S9)) (let ((?v_0 (f23 f32 (f26 f27 ?v0)))) (= (f22 ?v_0 (f22 (f23 f24 ?v1) ?v2)) (f22 (f23 f24 (f22 ?v_0 ?v1)) (f22 ?v_0 ?v2))))))
(assert (= (f8 f12 f15) f6))
(assert (= (f26 f27 f15) f33))
(assert (= (f8 f12 f15) f6))
(assert (forall ((?v0 S2)) (= (f8 (f9 f10 (f8 f12 f15)) ?v0) ?v0)))
(assert (forall ((?v0 S2)) (= (f8 (f9 f10 ?v0) (f8 f12 f15)) ?v0)))
(assert (forall ((?v0 S2) (?v1 S2)) (= (= (f3 (f4 f7 (f8 f12 ?v0)) (f8 f12 ?v1)) f1) (= (f3 (f4 f7 ?v0) ?v1) f1))))
(assert (forall ((?v0 S2) (?v1 S2)) (= (= (f3 (f4 f5 (f8 f12 ?v0)) (f8 f12 ?v1)) f1) (= (f3 (f4 f5 ?v0) ?v1) f1))))
(assert (forall ((?v0 S2) (?v1 S2) (?v2 S2)) (= (f8 (f9 f11 (f8 f12 ?v0)) (f8 (f9 f11 (f8 f12 ?v1)) ?v2)) (f8 (f9 f11 (f8 f12 (f8 (f9 f11 ?v0) ?v1))) ?v2))))
(assert (forall ((?v0 S2) (?v1 S2)) (= (f8 (f9 f11 (f8 f12 ?v0)) (f8 f12 ?v1)) (f8 f12 (f8 (f9 f11 ?v0) ?v1)))))
(assert (forall ((?v0 S2) (?v1 S2)) (= (f8 f12 (f8 (f9 f11 ?v0) ?v1)) (f8 (f9 f11 (f8 f12 ?v0)) (f8 f12 ?v1)))))
(assert (forall ((?v0 S2) (?v1 S2) (?v2 S2)) (= (f8 (f9 f10 (f8 f12 ?v0)) (f8 (f9 f10 (f8 f12 ?v1)) ?v2)) (f8 (f9 f10 (f8 f12 (f8 (f9 f10 ?v0) ?v1))) ?v2))))
(assert (forall ((?v0 S2) (?v1 S2)) (= (f8 (f9 f10 (f8 f12 ?v0)) (f8 f12 ?v1)) (f8 f12 (f8 (f9 f10 ?v0) ?v1)))))
(assert (forall ((?v0 S2) (?v1 S2)) (= (f8 f12 (f8 (f9 f10 ?v0) ?v1)) (f8 (f9 f10 (f8 f12 ?v0)) (f8 f12 ?v1)))))
(assert (forall ((?v0 S2)) (= (= (f3 (f4 f7 (f8 f14 ?v0)) f15) f1) (= (f3 (f4 f7 ?v0) f15) f1))))
(assert (forall ((?v0 S2)) (= (= (f3 (f4 f7 (f8 f14 ?v0)) f6) f1) (= (f3 (f4 f7 ?v0) f6) f1))))
(assert (forall ((?v0 S2) (?v1 S2)) (= (= (f3 (f4 f7 (f8 f14 ?v0)) (f8 f13 ?v1)) f1) (= (f3 (f4 f7 ?v0) ?v1) f1))))
(assert (forall ((?v0 S2) (?v1 S2)) (= (= (f3 (f4 f7 (f8 f14 ?v0)) (f8 f13 ?v1)) f1) (= (f3 (f4 f7 ?v0) ?v1) f1))))
(assert (= (= (f3 (f4 f7 f15) f6) f1) false))
(assert (forall ((?v0 S2)) (= (= (f3 (f4 f7 (f8 f13 ?v0)) f15) f1) (= (f3 (f4 f7 ?v0) f15) f1))))
(assert (forall ((?v0 S2)) (let ((?v_0 (f4 f7 f15))) (= (= (f3 ?v_0 (f8 f13 ?v0)) f1) (= (f3 ?v_0 ?v0) f1)))))
(assert (forall ((?v0 S2)) (= (= (f3 (f4 f7 (f8 f13 ?v0)) f6) f1) (= (f3 (f4 f7 ?v0) f6) f1))))
(assert (forall ((?v0 S2)) (let ((?v_0 (f4 f5 f15))) (= (= (f3 ?v_0 (f8 f14 ?v0)) f1) (= (f3 ?v_0 ?v0) f1)))))
(assert (forall ((?v0 S2) (?v1 S2)) (= (= (f3 (f4 f5 (f8 f13 ?v0)) (f8 f14 ?v1)) f1) (= (f3 (f4 f5 ?v0) ?v1) f1))))
(assert (forall ((?v0 S2) (?v1 S2)) (= (= (f3 (f4 f5 (f8 f13 ?v0)) (f8 f14 ?v1)) f1) (= (f3 (f4 f5 ?v0) ?v1) f1))))
(assert (forall ((?v0 S2)) (= (= (f3 (f4 f5 (f8 f13 ?v0)) f15) f1) (= (f3 (f4 f5 ?v0) f15) f1))))
(assert (forall ((?v0 S2)) (let ((?v_0 (f4 f5 f15))) (= (= (f3 ?v_0 (f8 f13 ?v0)) f1) (= (f3 ?v_0 ?v0) f1)))))
(assert (= f6 (f8 f12 f15)))
(assert (forall ((?v0 S2) (?v1 S2)) (= (f8 (f9 f10 (f8 f14 ?v0)) (f8 f13 ?v1)) (f8 f14 (f8 (f9 f10 ?v0) ?v1)))))
(assert (forall ((?v0 S2) (?v1 S2)) (= (f8 (f9 f10 (f8 f13 ?v0)) (f8 f14 ?v1)) (f8 f14 (f8 (f9 f10 ?v0) ?v1)))))
(assert (= (f3 (f4 f7 f6) f17) f1))
(assert (= (f3 (f4 f5 f6) f17) f1))
(assert (forall ((?v0 S2) (?v1 S2) (?v2 S2)) (let ((?v_0 (f9 f11 ?v2))) (=> (= (f3 (f4 f7 ?v0) ?v1) f1) (=> (= (f3 (f4 f7 f6) ?v2) f1) (= (f3 (f4 f7 (f8 ?v_0 ?v0)) (f8 ?v_0 ?v1)) f1))))))
(assert (forall ((?v0 S2) (?v1 S2)) (let ((?v_0 (f4 f5 f6))) (=> (= (f3 ?v_0 ?v0) f1) (=> (= (f3 ?v_0 ?v1) f1) (= (f3 ?v_0 (f8 (f9 f11 ?v0) ?v1)) f1))))))
(assert (forall ((?v0 S2)) (= (f8 f14 ?v0) (f8 (f9 f10 (f8 (f9 f10 f17) ?v0)) ?v0))))
(assert (forall ((?v0 S2) (?v1 S2)) (let ((?v_0 (f4 f5 f6))) (=> (= (f3 ?v_0 ?v0) f1) (=> (= (f3 ?v_0 ?v1) f1) (= (f3 ?v_0 (f8 (f9 f10 ?v0) ?v1)) f1))))))
(assert (forall ((?v0 S2)) (not (= (f8 (f9 f10 (f8 (f9 f10 f17) ?v0)) ?v0) f6))))
(assert (forall ((?v0 S2) (?v1 S2) (?v2 S2) (?v3 S2)) (=> (= (f3 (f4 f7 ?v0) ?v1) f1) (=> (= (f3 (f4 f5 ?v2) ?v3) f1) (= (f3 (f4 f7 (f8 (f9 f10 ?v0) ?v2)) (f8 (f9 f10 ?v1) ?v3)) f1)))))
(assert (forall ((?v0 S2) (?v1 S2)) (let ((?v_0 (f4 f7 ?v0))) (= (= (f3 ?v_0 (f8 (f9 f10 ?v1) f17)) f1) (or (= (f3 ?v_0 ?v1) f1) (= ?v0 ?v1))))))
(assert (forall ((?v0 S2)) (let ((?v_0 (f8 f12 ?v0))) (= (f8 f12 (f8 f13 ?v0)) (f8 (f9 f10 (f8 (f9 f10 f6) ?v_0)) ?v_0)))))
(assert (forall ((?v0 S2)) (let ((?v_0 (f8 f12 ?v0))) (= (f8 f12 (f8 f14 ?v0)) (f8 (f9 f10 (f8 (f9 f10 f17) ?v_0)) ?v_0)))))
(assert (forall ((?v0 S2)) (= (f8 (f9 f11 (f8 f12 (f8 f14 f15))) ?v0) ?v0)))
(assert (forall ((?v0 S2)) (= (f8 (f9 f11 ?v0) (f8 f12 (f8 f14 f15))) ?v0)))
(assert (= (f8 f12 (f8 f14 f15)) f17))
(assert (= (f26 f27 (f8 f14 f15)) f25))
(assert (= (f8 f12 (f8 f14 f15)) f17))
(assert (forall ((?v0 S2)) (= (= (f3 (f4 f5 (f8 f14 ?v0)) f15) f1) (= (f3 (f4 f7 ?v0) f15) f1))))
(assert (forall ((?v0 S2)) (= (= (f3 (f4 f7 f15) (f8 f14 ?v0)) f1) (= (f3 (f4 f5 f15) ?v0) f1))))
(assert (forall ((?v0 S2) (?v1 S2)) (= (= (f3 (f4 f5 (f8 f14 ?v0)) (f8 f13 ?v1)) f1) (= (f3 (f4 f7 ?v0) ?v1) f1))))
(assert (forall ((?v0 S2) (?v1 S2)) (= (= (f3 (f4 f5 (f8 f14 ?v0)) (f8 f13 ?v1)) f1) (= (f3 (f4 f7 ?v0) ?v1) f1))))
(assert (forall ((?v0 S2) (?v1 S2)) (= (= (f3 (f4 f7 (f8 f13 ?v0)) (f8 f14 ?v1)) f1) (= (f3 (f4 f5 ?v0) ?v1) f1))))
(assert (forall ((?v0 S2) (?v1 S2)) (= (= (f3 (f4 f7 (f8 f13 ?v0)) (f8 f14 ?v1)) f1) (= (f3 (f4 f5 ?v0) ?v1) f1))))
(assert (= f17 (f8 f12 (f8 f14 f15))))
(assert (forall ((?v0 S2)) (= (= (f3 (f4 f5 f17) ?v0) f1) (= (f3 (f4 f7 f6) ?v0) f1))))
(assert (forall ((?v0 S2) (?v1 S2)) (= (f8 (f9 f11 (f8 f14 ?v0)) ?v1) (f8 (f9 f10 (f8 f13 (f8 (f9 f11 ?v0) ?v1))) ?v1))))
(assert (forall ((?v0 S2) (?v1 S2)) (=> (= (f3 (f4 f7 f6) ?v0) f1) (= (= (f8 (f9 f11 ?v0) ?v1) f17) (and (= ?v0 f17) (= ?v1 f17))))))
(assert (forall ((?v0 S2)) (= (= (f3 (f4 f7 (f8 (f9 f10 (f8 (f9 f10 f17) ?v0)) ?v0)) f6) f1) (= (f3 (f4 f7 ?v0) f6) f1))))
(assert (forall ((?v0 S2) (?v1 S2)) (=> (= (f3 (f4 f7 ?v0) ?v1) f1) (= (f3 (f4 f5 (f8 (f9 f10 ?v0) f17)) ?v1) f1))))
(assert (forall ((?v0 S2) (?v1 S2)) (= (= (f3 (f4 f5 (f8 (f9 f10 ?v0) f17)) ?v1) f1) (= (f3 (f4 f7 ?v0) ?v1) f1))))
(assert (forall ((?v0 S2) (?v1 S2)) (= (= (f3 (f4 f7 ?v0) (f8 (f9 f10 ?v1) f17)) f1) (= (f3 (f4 f5 ?v0) ?v1) f1))))
(assert (forall ((?v0 S2)) (= (f8 (f9 f11 (f8 (f9 f10 f17) f17)) (f8 f12 ?v0)) (f8 f12 (f8 f13 ?v0)))))
(assert (forall ((?v0 S2)) (= (= (f3 (f4 f7 (f8 f12 ?v0)) f6) f1) (= (f3 (f4 f7 ?v0) f15) f1))))
(assert (forall ((?v0 S2)) (= (= (f3 (f4 f7 f6) (f8 f12 ?v0)) f1) (= (f3 (f4 f7 f15) ?v0) f1))))
(assert (forall ((?v0 S2)) (= (= (f3 (f4 f5 (f8 f12 ?v0)) f6) f1) (= (f3 (f4 f5 ?v0) f15) f1))))
(assert (forall ((?v0 S2)) (= (= (f3 (f4 f5 f6) (f8 f12 ?v0)) f1) (= (f3 (f4 f5 f15) ?v0) f1))))
(assert (= (f3 (f4 f5 f6) (f8 f12 (f8 f14 (f8 f14 f15)))) f1))
(assert (forall ((?v0 S2)) (=> (= (f3 (f4 f5 f6) ?v0) f1) (= (f3 (f4 f7 f6) (f8 (f9 f10 f17) ?v0)) f1))))
(assert (forall ((?v0 S2) (?v1 S2) (?v2 S2) (?v3 S2) (?v4 S2) (?v5 S2)) (let ((?v_0 (f8 (f9 f10 (f8 (f9 f11 ?v3) ?v4)) ?v5))) (=> (= (f8 (f9 f10 (f8 (f9 f11 ?v0) ?v1)) ?v2) ?v_0) (=> (= (f3 (f4 f7 ?v_0) f6) f1) (=> (= (f3 (f4 f7 ?v2) ?v0) f1) (=> (= (f3 (f4 f5 f6) ?v5) f1) (=> (= (f3 (f4 f7 f6) ?v3) f1) (=> (= (f3 (f4 f5 ?v3) ?v0) f1) (= (f3 (f4 f5 ?v4) ?v1) f1))))))))))
(assert (forall ((?v0 S2) (?v1 S2) (?v2 S2) (?v3 S2) (?v4 S2)) (let ((?v_0 (f9 f11 ?v0)) (?v_1 (f4 f7 ?v0))) (=> (= (f3 (f4 f5 (f8 (f9 f10 (f8 ?v_0 ?v1)) ?v2)) (f8 (f9 f10 (f8 ?v_0 ?v3)) ?v4)) f1) (=> (= (f3 (f4 f5 ?v4) f6) f1) (=> (= (f3 ?v_1 ?v4) f1) (=> (= (f3 ?v_1 ?v2) f1) (= (f3 (f4 f5 ?v3) ?v1) f1))))))))
(assert (forall ((?v0 S2) (?v1 S2) (?v2 S2) (?v3 S2) (?v4 S2) (?v5 S2)) (let ((?v_1 (f4 f5 f6)) (?v_0 (f8 (f9 f10 (f8 (f9 f11 ?v3) ?v4)) ?v5))) (=> (= (f8 (f9 f10 (f8 (f9 f11 ?v0) ?v1)) ?v2) ?v_0) (=> (= (f3 ?v_1 ?v_0) f1) (=> (= (f3 (f4 f7 ?v5) ?v3) f1) (=> (= (f3 ?v_1 ?v2) f1) (=> (= (f3 (f4 f7 f6) ?v3) f1) (=> (= (f3 (f4 f5 ?v3) ?v0) f1) (= (f3 (f4 f5 ?v1) ?v4) f1))))))))))
(assert (forall ((?v0 S2) (?v1 S2) (?v2 S2) (?v3 S2) (?v4 S2)) (let ((?v_0 (f9 f11 ?v0))) (=> (= (f3 (f4 f5 (f8 (f9 f10 (f8 ?v_0 ?v1)) ?v2)) (f8 (f9 f10 (f8 ?v_0 ?v3)) ?v4)) f1) (=> (= (f3 (f4 f5 f6) ?v2) f1) (=> (= (f3 (f4 f7 ?v2) ?v0) f1) (=> (= (f3 (f4 f7 ?v4) ?v0) f1) (= (f3 (f4 f5 ?v1) ?v3) f1))))))))
(assert (forall ((?v0 S2) (?v1 S2) (?v2 S2)) (=> (= (f3 (f4 f7 (f8 (f9 f10 (f8 (f9 f11 ?v0) ?v1)) ?v2)) f6) f1) (=> (= (f3 (f4 f5 f6) ?v2) f1) (=> (= (f3 (f4 f7 f6) ?v0) f1) (= (f3 (f4 f5 ?v1) f6) f1))))))
(assert (forall ((?v0 S2) (?v1 S2) (?v2 S2)) (let ((?v_0 (f4 f5 f6))) (=> (= (f3 ?v_0 (f8 (f9 f10 (f8 (f9 f11 ?v0) ?v1)) ?v2)) f1) (=> (= (f3 (f4 f7 ?v2) ?v0) f1) (=> (= (f3 (f4 f7 f6) ?v0) f1) (= (f3 ?v_0 ?v1) f1)))))))
(assert (forall ((?v0 S2)) (= (f8 (f9 f11 (f8 f12 (f8 f13 (f8 f14 f15)))) ?v0) (f8 (f9 f10 ?v0) ?v0))))
(assert (forall ((?v0 S9)) (= (f22 (f23 f32 (f26 f27 (f8 f13 (f8 f14 f15)))) ?v0) (f22 (f23 f24 ?v0) ?v0))))
(assert (forall ((?v0 S2)) (= (f8 (f9 f11 (f8 f12 (f8 f13 (f8 f14 f15)))) ?v0) (f8 (f9 f10 ?v0) ?v0))))
(assert (forall ((?v0 S2)) (= (f8 (f9 f11 ?v0) (f8 f12 (f8 f13 (f8 f14 f15)))) (f8 (f9 f10 ?v0) ?v0))))
(assert (forall ((?v0 S9)) (= (f22 (f23 f32 ?v0) (f26 f27 (f8 f13 (f8 f14 f15)))) (f22 (f23 f24 ?v0) ?v0))))
(assert (forall ((?v0 S2)) (= (f8 (f9 f11 ?v0) (f8 f12 (f8 f13 (f8 f14 f15)))) (f8 (f9 f10 ?v0) ?v0))))
(assert (forall ((?v0 S2)) (let ((?v_0 (f8 f14 f15))) (let ((?v_1 (f8 f13 ?v_0))) (=> (= (f3 f21 ?v0) f1) (=> (not (= ?v0 (f8 f12 ?v_1))) (=> (not (= ?v0 (f8 f12 (f8 f14 ?v_0)))) (= (f3 (f4 f5 (f8 f12 (f8 f14 ?v_1))) ?v0) f1))))))))
(assert (forall ((?v0 S2) (?v1 S2) (?v2 S2) (?v3 S2) (?v4 S2)) (let ((?v_0 (f4 f5 f6))) (=> (= (f3 (f4 f7 ?v0) ?v1) f1) (=> (= (f3 (f4 f7 ?v2) ?v1) f1) (=> (= (f3 ?v_0 ?v3) f1) (=> (= (f3 ?v_0 ?v4) f1) (=> (= (f8 (f9 f10 ?v3) ?v4) f17) (= (f3 (f4 f7 (f8 (f9 f10 (f8 (f9 f11 ?v3) ?v0)) (f8 (f9 f11 ?v4) ?v2))) ?v1) f1)))))))))
(assert (forall ((?v0 S2) (?v1 S2) (?v2 S2)) (=> (= (f3 f21 ?v0) f1) (=> (= (f3 (f4 f7 f6) ?v1) f1) (=> (= (f3 (f4 (f18 f19 (f8 (f9 f11 ?v1) ?v2)) f6) ?v0) f1) (or (= (f3 (f4 (f18 f19 ?v1) f6) ?v0) f1) (= (f3 (f4 (f18 f19 ?v2) f6) ?v0) f1)))))))
(assert (forall ((?v0 S2) (?v1 S2) (?v2 S2)) (=> (= (f3 f21 ?v0) f1) (=> (= (f3 (f4 f7 f6) ?v1) f1) (=> (and (not (= (f3 (f4 (f18 f19 ?v1) f6) ?v0) f1)) (not (= (f3 (f4 (f18 f19 ?v2) f6) ?v0) f1))) (not (= (f3 (f4 (f18 f19 (f8 (f9 f11 ?v1) ?v2)) f6) ?v0) f1)))))))
(assert (= (f3 f21 (f8 f12 (f8 f13 (f8 f14 f15)))) f1))
(assert (forall ((?v0 S2)) (let ((?v_0 (f4 f5 f6))) (=> (= (f3 ?v_0 (f8 f12 ?v0)) f1) (and (= (f3 ?v_0 (f8 f12 (f8 f13 ?v0))) f1) (= (f3 ?v_0 (f8 f12 (f8 f14 ?v0))) f1))))))
(assert (forall ((?v0 S2) (?v1 S2)) (let ((?v_0 (f4 f5 f15))) (=> (= (f3 ?v_0 ?v0) f1) (=> (= (f3 ?v_0 ?v1) f1) (= (f8 (f9 f10 (f8 f12 ?v0)) (f8 f12 ?v1)) (f8 f12 (f8 (f9 f10 ?v0) ?v1))))))))
(assert (forall ((?v0 S2) (?v1 S2)) (let ((?v_0 (f4 f5 f15))) (=> (= (f3 ?v_0 ?v0) f1) (=> (= (f3 ?v_0 ?v1) f1) (= (f22 (f23 f24 (f26 f27 ?v0)) (f26 f27 ?v1)) (f26 f27 (f8 (f9 f10 ?v0) ?v1))))))))
(assert (forall ((?v0 S2) (?v1 S2)) (let ((?v_0 (f4 f5 f15))) (=> (= (f3 ?v_0 ?v0) f1) (=> (= (f3 ?v_0 ?v1) f1) (= (f8 (f9 f11 (f8 f12 ?v0)) (f8 f12 ?v1)) (f8 f12 (f8 (f9 f11 ?v0) ?v1))))))))
(assert (forall ((?v0 S2) (?v1 S2)) (let ((?v_0 (f4 f5 f15))) (=> (= (f3 ?v_0 ?v0) f1) (=> (= (f3 ?v_0 ?v1) f1) (= (f22 (f23 f32 (f26 f27 ?v0)) (f26 f27 ?v1)) (f26 f27 (f8 (f9 f11 ?v0) ?v1))))))))
(assert (forall ((?v0 S2) (?v1 S2) (?v2 S2) (?v3 S2) (?v4 S2)) (let ((?v_0 (f4 f5 f6))) (=> (= (f3 (f4 f5 ?v0) ?v1) f1) (=> (= (f3 (f4 f5 ?v2) ?v1) f1) (=> (= (f3 ?v_0 ?v3) f1) (=> (= (f3 ?v_0 ?v4) f1) (=> (= (f8 (f9 f10 ?v3) ?v4) f17) (= (f3 (f4 f5 (f8 (f9 f10 (f8 (f9 f11 ?v3) ?v0)) (f8 (f9 f11 ?v4) ?v2))) ?v1) f1)))))))))
(assert (let ((?v_0 (f8 f13 (f8 f14 f15)))) (= (f3 (f4 (f18 f19 (f34 (f35 f36 f20) (f26 f27 ?v_0))) (f8 f12 f37)) (f8 (f9 f10 (f8 (f9 f11 (f8 f12 (f8 f13 ?v_0))) f16)) f17)) f1)))
(assert (forall ((?v0 S2) (?v1 S2) (?v2 S2)) (=> (= (f3 f21 ?v0) f1) (=> (not (= (f3 (f4 (f18 f19 ?v1) f6) ?v0) f1)) (=> (not (= (f3 (f4 (f18 f19 ?v2) f6) ?v0) f1)) (not (= (f3 (f4 (f18 f19 (f8 (f9 f11 ?v1) ?v2)) f6) ?v0) f1)))))))
(assert (=> (forall ((?v0 S2)) (let ((?v_0 (f8 f13 (f8 f14 f15)))) (=> (= (f3 (f4 (f18 f19 (f34 (f35 f36 ?v0) (f26 f27 ?v_0))) (f8 f12 f37)) (f8 (f9 f10 (f8 (f9 f11 (f8 f12 (f8 f13 ?v_0))) f16)) f17)) f1) false))) false))
(assert (= (f8 (f9 f38 (f8 f12 f37)) (f8 (f9 f10 (f8 (f9 f11 (f8 f12 (f8 f13 (f8 f13 (f8 f14 f15))))) f16)) f17)) f17))
(assert (= (= f37 f37) true))
(assert (forall ((?v0 S2) (?v1 S9) (?v2 S9)) (let ((?v_0 (f35 f36 ?v0))) (= (f34 (f35 f36 (f34 ?v_0 ?v1)) ?v2) (f34 ?v_0 (f22 (f23 f32 ?v1) ?v2))))))
(assert (forall ((?v0 S2) (?v1 S2) (?v2 S2) (?v3 S9)) (=> (= (f3 (f4 (f18 f19 ?v0) ?v1) ?v2) f1) (= (f3 (f4 (f18 f19 (f34 (f35 f36 ?v0) ?v3)) (f34 (f35 f36 ?v1) ?v3)) ?v2) f1))))
(assert (= (f26 f27 f15) f33))
(assert (= f33 (f26 f27 f15)))
(assert (forall ((?v0 S2) (?v1 S9) (?v2 S2) (?v3 S9)) (let ((?v_0 (f35 f36 ?v0))) (=> (= (f3 (f4 (f18 f19 (f34 ?v_0 ?v1)) f17) ?v2) f1) (= (f3 (f4 (f18 f19 (f34 ?v_0 (f22 (f23 f32 ?v1) ?v3))) f17) ?v2) f1)))))
(assert (forall ((?v0 S2) (?v1 S2)) (let ((?v_0 (f26 f27 ?v1))) (= (= (f34 (f35 f36 ?v0) ?v_0) f6) (and (= ?v0 f6) (not (= ?v_0 f33)))))))
(assert (forall ((?v0 S9) (?v1 S2)) (let ((?v_0 (f26 f27 ?v1))) (= (= (f22 (f23 f39 ?v0) ?v_0) f33) (and (= ?v0 f33) (not (= ?v_0 f33)))))))
(assert (forall ((?v0 S9) (?v1 S9)) (let ((?v_1 (f26 f27 (f8 f13 (f8 f14 f15)))) (?v_0 (f23 f39 ?v0))) (= (f22 ?v_0 (f22 (f23 f32 ?v_1) ?v1)) (f22 (f23 f39 (f22 ?v_0 ?v1)) ?v_1)))))
(assert (forall ((?v0 S2) (?v1 S9)) (let ((?v_1 (f26 f27 (f8 f13 (f8 f14 f15)))) (?v_0 (f35 f36 ?v0))) (= (f34 ?v_0 (f22 (f23 f32 ?v_1) ?v1)) (f34 (f35 f36 (f34 ?v_0 ?v1)) ?v_1)))))
(assert (= (f8 f14 f37) f37))
(assert (forall ((?v0 S2)) (= (= f37 (f8 f14 ?v0)) (= f37 ?v0))))
(assert (forall ((?v0 S2)) (= (= (f8 f14 ?v0) f37) (= ?v0 f37))))
(assert (= (= f37 f15) false))
(assert (= (= f15 f37) false))
(assert (forall ((?v0 S2)) (= (= f37 (f8 f13 ?v0)) false)))
(assert (forall ((?v0 S2)) (= (= (f8 f13 ?v0) f37) false)))
(assert (forall ((?v0 S2) (?v1 S9) (?v2 S9)) (let ((?v_0 (f35 f36 ?v0))) (= (f34 ?v_0 (f22 (f23 f24 ?v1) ?v2)) (f8 (f9 f11 (f34 ?v_0 ?v1)) (f34 ?v_0 ?v2))))))
(assert (forall ((?v0 S2) (?v1 S2)) (= (f22 (f23 f32 (f26 f27 ?v0)) (f26 f27 ?v1)) (ite (= (f3 (f4 f7 ?v0) f15) f1) f33 (f26 f27 (f8 (f9 f11 ?v0) ?v1))))))
(assert (forall ((?v0 S2) (?v1 S2) (?v2 S9)) (= (f22 (f23 f32 (f26 f27 ?v0)) (f22 (f23 f32 (f26 f27 ?v1)) ?v2)) (ite (= (f3 (f4 f7 ?v0) f15) f1) f33 (f22 (f23 f32 (f26 f27 (f8 (f9 f11 ?v0) ?v1))) ?v2)))))
(assert (= (= (f3 (f4 f7 f37) f37) f1) false))
(assert (= (= (f3 (f4 f5 f37) f37) f1) true))
(assert (forall ((?v0 S9)) (= (f34 (f35 f36 (f8 f12 f37)) (f22 (f23 f32 (f26 f27 (f8 f13 (f8 f14 f15)))) ?v0)) f17)))
(assert (not (= (f8 f12 f15) (f8 f12 f37))))
(assert (forall ((?v0 S2)) (= (= (f28 (f29 f31 f33) (f26 f27 ?v0)) f1) (= (f3 (f4 f7 f15) ?v0) f1))))
(assert (forall ((?v0 S2)) (= (= f33 (f26 f27 ?v0)) (= (f3 (f4 f5 ?v0) f15) f1))))
(assert (forall ((?v0 S2)) (= (= (f26 f27 ?v0) f33) (= (f3 (f4 f5 ?v0) f15) f1))))
(assert (forall ((?v0 S2) (?v1 S9)) (= (f3 (f4 f5 f6) (f34 (f35 f36 ?v0) (f22 (f23 f32 (f26 f27 (f8 f13 (f8 f14 f15)))) ?v1))) f1)))
(assert (forall ((?v0 S2)) (let ((?v_0 (f26 f27 ?v0))) (= (f34 (f35 f36 f6) ?v_0) (ite (= ?v_0 f33) f17 f6)))))
(assert (forall ((?v0 S2)) (let ((?v_0 (f26 f27 ?v0))) (= (f22 (f23 f39 f33) ?v_0) (ite (= ?v_0 f33) f25 f33)))))
(assert (forall ((?v0 S9)) (= (f22 (f23 f39 ?v0) (f26 f27 (f8 f14 (f8 f14 f15)))) (f22 (f23 f32 (f22 (f23 f32 ?v0) ?v0)) ?v0))))
(assert (forall ((?v0 S2)) (= (f34 (f35 f36 ?v0) (f26 f27 (f8 f14 (f8 f14 f15)))) (f8 (f9 f11 (f8 (f9 f11 ?v0) ?v0)) ?v0))))
(assert (forall ((?v0 S2)) (let ((?v_2 (f8 f13 (f8 f14 f15)))) (let ((?v_0 (f26 f27 ?v_2)) (?v_1 (f35 f36 ?v0))) (= (f34 (f35 f36 (f34 ?v_1 ?v_0)) ?v_0) (f34 ?v_1 (f26 f27 (f8 f13 ?v_2))))))))
(assert (forall ((?v0 S2) (?v1 S9)) (let ((?v_0 (f4 f5 f6))) (=> (= (f3 ?v_0 ?v0) f1) (= (f3 ?v_0 (f34 (f35 f36 ?v0) ?v1)) f1)))))
(assert (forall ((?v0 S9)) (= (f22 (f23 f32 ?v0) (f26 f27 (f8 f13 (f8 f14 f15)))) (f22 (f23 f24 ?v0) ?v0))))
(assert (forall ((?v0 S9)) (= (f22 (f23 f32 (f26 f27 (f8 f13 (f8 f14 f15)))) ?v0) (f22 (f23 f24 ?v0) ?v0))))
(assert (forall ((?v0 S2)) (let ((?v_0 (f4 f7 f37))) (= (= (f3 ?v_0 (f8 f14 ?v0)) f1) (= (f3 ?v_0 ?v0) f1)))))
(assert (forall ((?v0 S2)) (= (= (f3 (f4 f7 (f8 f14 ?v0)) f37) f1) (= (f3 (f4 f7 ?v0) f37) f1))))
(assert (= (= (f3 (f4 f7 f37) f15) f1) true))
(assert (= (= (f3 (f4 f7 f15) f37) f1) false))
(assert (= (= (f3 (f4 f7 f37) f6) f1) true))
(assert (forall ((?v0 S2)) (let ((?v_0 (f4 f7 f37))) (= (= (f3 ?v_0 (f8 f13 ?v0)) f1) (= (f3 ?v_0 ?v0) f1)))))
(assert (forall ((?v0 S2)) (let ((?v_0 (f4 f5 f37))) (= (= (f3 ?v_0 (f8 f14 ?v0)) f1) (= (f3 ?v_0 ?v0) f1)))))
(assert (forall ((?v0 S2)) (= (= (f3 (f4 f5 (f8 f14 ?v0)) f37) f1) (= (f3 (f4 f5 ?v0) f37) f1))))
(assert (= (= (f3 (f4 f5 f37) f15) f1) true))
(assert (= (= (f3 (f4 f5 f15) f37) f1) false))
(assert (forall ((?v0 S2)) (= (= (f3 (f4 f5 (f8 f13 ?v0)) f37) f1) (= (f3 (f4 f5 ?v0) f37) f1))))
(assert (forall ((?v0 S2) (?v1 S9)) (=> (= (f3 (f4 f5 (f34 (f35 f36 ?v0) (f22 (f23 f32 (f26 f27 (f8 f13 (f8 f14 f15)))) ?v1))) f6) f1) (= ?v0 f6))))
(assert (= (f34 (f35 f36 f6) (f26 f27 (f8 f13 (f8 f14 f15)))) f6))
(assert (= (f22 (f23 f39 f33) (f26 f27 (f8 f13 (f8 f14 f15)))) f33))
(assert (forall ((?v0 S2)) (= (= (f34 (f35 f36 ?v0) (f26 f27 (f8 f13 (f8 f14 f15)))) f6) (= ?v0 f6))))
(assert (forall ((?v0 S9)) (= (f22 (f23 f39 ?v0) (f26 f27 (f8 f13 (f8 f14 f15)))) (f22 (f23 f32 ?v0) ?v0))))
(assert (forall ((?v0 S2)) (= (f34 (f35 f36 ?v0) (f26 f27 (f8 f13 (f8 f14 f15)))) (f8 (f9 f11 ?v0) ?v0))))
(assert (= (f34 (f35 f36 f17) (f26 f27 (f8 f13 (f8 f14 f15)))) f17))
(assert (= (f22 (f23 f39 f25) (f26 f27 (f8 f13 (f8 f14 f15)))) f25))
(assert (forall ((?v0 S2)) (= (f3 (f4 f5 ?v0) (f34 (f35 f36 ?v0) (f26 f27 (f8 f13 (f8 f14 f15))))) f1)))
(assert (forall ((?v0 S2)) (let ((?v_1 (f8 f14 f15)) (?v_0 (f35 f36 ?v0))) (= (f8 (f9 f11 ?v0) (f34 ?v_0 (f26 f27 (f8 f13 ?v_1)))) (f34 ?v_0 (f26 f27 (f8 f14 ?v_1)))))))
(assert (forall ((?v0 S2)) (= (= (f3 (f4 f5 f37) (f8 f13 ?v0)) f1) (= (f3 (f4 f7 f37) ?v0) f1))))
(assert (forall ((?v0 S2)) (= (= (f3 (f4 f7 (f8 f13 ?v0)) f37) f1) (= (f3 (f4 f5 ?v0) f37) f1))))
(assert (forall ((?v0 S2) (?v1 S2)) (let ((?v_0 (f8 f12 f37))) (= (= (f8 (f9 f11 ?v0) ?v1) f17) (or (and (= ?v0 f17) (= ?v1 f17)) (and (= ?v0 ?v_0) (= ?v1 ?v_0)))))))
(assert (forall ((?v0 S2) (?v1 S2)) (=> (= (f8 (f9 f11 ?v0) ?v1) f17) (or (= ?v0 f17) (= ?v0 (f8 f12 f37))))))
(assert (forall ((?v0 S2) (?v1 S2)) (=> (not (= ?v0 ?v1)) (=> (=> (= (f3 (f4 f7 ?v0) ?v1) f1) false) (=> (=> (= (f3 (f4 f7 ?v1) ?v0) f1) false) false)))))
(assert (forall ((?v0 S2)) (= (f3 (f4 f5 f6) (f34 (f35 f36 ?v0) (f26 f27 (f8 f13 (f8 f14 f15))))) f1)))
(assert (forall ((?v0 S2) (?v1 S2)) (let ((?v_0 (f26 f27 (f8 f13 (f8 f14 f15))))) (=> (= (f3 (f4 f5 (f34 (f35 f36 ?v0) ?v_0)) (f34 (f35 f36 ?v1) ?v_0)) f1) (=> (= (f3 (f4 f5 f6) ?v1) f1) (= (f3 (f4 f5 ?v0) ?v1) f1))))))
(assert (forall ((?v0 S9) (?v1 S9)) (let ((?v_0 (f26 f27 (f8 f13 (f8 f14 f15))))) (=> (= (f28 (f29 f30 (f22 (f23 f39 ?v0) ?v_0)) (f22 (f23 f39 ?v1) ?v_0)) f1) (=> (= (f28 (f29 f30 f33) ?v1) f1) (= (f28 (f29 f30 ?v0) ?v1) f1))))))
(assert (forall ((?v0 S2) (?v1 S2)) (let ((?v_1 (f4 f5 f6)) (?v_0 (f26 f27 (f8 f13 (f8 f14 f15))))) (=> (= (f34 (f35 f36 ?v0) ?v_0) (f34 (f35 f36 ?v1) ?v_0)) (=> (= (f3 ?v_1 ?v0) f1) (=> (= (f3 ?v_1 ?v1) f1) (= ?v0 ?v1)))))))
(assert (forall ((?v0 S9) (?v1 S9)) (let ((?v_0 (f26 f27 (f8 f13 (f8 f14 f15)))) (?v_1 (f29 f30 f33))) (=> (= (f22 (f23 f39 ?v0) ?v_0) (f22 (f23 f39 ?v1) ?v_0)) (=> (= (f28 ?v_1 ?v0) f1) (=> (= (f28 ?v_1 ?v1) f1) (= ?v0 ?v1)))))))
(assert (forall ((?v0 S2)) (not (= (f3 (f4 f7 (f34 (f35 f36 ?v0) (f26 f27 (f8 f13 (f8 f14 f15))))) f6) f1))))
(assert (forall ((?v0 S2)) (= (= (f3 (f4 f7 f6) (f34 (f35 f36 ?v0) (f26 f27 (f8 f13 (f8 f14 f15))))) f1) (not (= ?v0 f6)))))
(assert (forall ((?v0 S2) (?v1 S2)) (let ((?v_0 (f26 f27 (f8 f13 (f8 f14 f15))))) (= (= (f8 (f9 f10 (f34 (f35 f36 ?v0) ?v_0)) (f34 (f35 f36 ?v1) ?v_0)) f6) (and (= ?v0 f6) (= ?v1 f6))))))
(assert (forall ((?v0 S2)) (let ((?v_0 (f26 f27 ?v0))) (= (f22 (f23 f39 ?v_0) (f26 f27 (f8 f13 (f8 f14 f15)))) (f22 (f23 f32 ?v_0) ?v_0)))))
(assert (forall ((?v0 S2)) (let ((?v_0 (f8 f12 ?v0))) (= (f34 (f35 f36 ?v_0) (f26 f27 (f8 f13 (f8 f14 f15)))) (f8 (f9 f11 ?v_0) ?v_0)))))
(assert (forall ((?v0 S2) (?v1 S2) (?v2 S2) (?v3 S2) (?v4 S2)) (let ((?v_0 (f18 f19 ?v0))) (=> (= (f3 (f4 ?v_0 ?v1) ?v2) f1) (=> (= ?v1 ?v3) (=> (= (f3 (f4 (f18 f19 ?v3) ?v4) ?v2) f1) (= (f3 (f4 ?v_0 ?v4) ?v2) f1)))))))
(assert (forall ((?v0 S2) (?v1 S2)) (let ((?v_0 (f26 f27 (f8 f13 (f8 f14 f15))))) (=> (= (f3 (f4 f7 (f34 (f35 f36 ?v0) ?v_0)) (f34 (f35 f36 ?v1) ?v_0)) f1) (=> (= (f3 (f4 f5 f6) ?v1) f1) (= (f3 (f4 f7 ?v0) ?v1) f1))))))
(assert (forall ((?v0 S9) (?v1 S9)) (let ((?v_0 (f26 f27 (f8 f13 (f8 f14 f15))))) (=> (= (f28 (f29 f31 (f22 (f23 f39 ?v0) ?v_0)) (f22 (f23 f39 ?v1) ?v_0)) f1) (=> (= (f28 (f29 f30 f33) ?v1) f1) (= (f28 (f29 f31 ?v0) ?v1) f1))))))
(assert (forall ((?v0 S2) (?v1 S2)) (let ((?v_0 (f26 f27 (f8 f13 (f8 f14 f15))))) (= (f3 (f4 f5 f6) (f8 (f9 f10 (f34 (f35 f36 ?v0) ?v_0)) (f34 (f35 f36 ?v1) ?v_0))) f1))))
(assert (forall ((?v0 S2) (?v1 S2)) (let ((?v_0 (f26 f27 (f8 f13 (f8 f14 f15))))) (= (= (f3 (f4 f5 (f8 (f9 f10 (f34 (f35 f36 ?v0) ?v_0)) (f34 (f35 f36 ?v1) ?v_0))) f6) f1) (and (= ?v0 f6) (= ?v1 f6))))))
(assert (forall ((?v0 S2) (?v1 S2)) (let ((?v_0 (f26 f27 (f8 f13 (f8 f14 f15))))) (not (= (f3 (f4 f7 (f8 (f9 f10 (f34 (f35 f36 ?v0) ?v_0)) (f34 (f35 f36 ?v1) ?v_0))) f6) f1)))))
(assert (forall ((?v0 S2) (?v1 S2)) (let ((?v_0 (f26 f27 (f8 f13 (f8 f14 f15))))) (= (= (f3 (f4 f7 f6) (f8 (f9 f10 (f34 (f35 f36 ?v0) ?v_0)) (f34 (f35 f36 ?v1) ?v_0))) f1) (or (not (= ?v0 f6)) (not (= ?v1 f6)))))))
(assert (forall ((?v0 S2) (?v1 S2)) (let ((?v_1 (f8 f13 (f8 f14 f15)))) (let ((?v_0 (f26 f27 ?v_1))) (= (f34 (f35 f36 (f8 (f9 f10 ?v0) ?v1)) ?v_0) (f8 (f9 f10 (f8 (f9 f10 (f34 (f35 f36 ?v0) ?v_0)) (f34 (f35 f36 ?v1) ?v_0))) (f8 (f9 f11 (f8 (f9 f11 (f8 f12 ?v_1)) ?v0)) ?v1)))))))
(assert (forall ((?v0 S9) (?v1 S9)) (let ((?v_0 (f26 f27 (f8 f13 (f8 f14 f15))))) (= (f22 (f23 f39 (f22 (f23 f24 ?v0) ?v1)) ?v_0) (f22 (f23 f24 (f22 (f23 f24 (f22 (f23 f39 ?v0) ?v_0)) (f22 (f23 f39 ?v1) ?v_0))) (f22 (f23 f32 (f22 (f23 f32 ?v_0) ?v0)) ?v1))))))
(assert (forall ((?v0 S2) (?v1 S2)) (let ((?v_1 (f8 f13 (f8 f14 f15)))) (let ((?v_0 (f26 f27 ?v_1))) (= (f34 (f35 f36 (f8 (f9 f10 ?v0) ?v1)) ?v_0) (f8 (f9 f10 (f8 (f9 f10 (f34 (f35 f36 ?v0) ?v_0)) (f8 (f9 f11 (f8 (f9 f11 (f8 f12 ?v_1)) ?v0)) ?v1))) (f34 (f35 f36 ?v1) ?v_0)))))))
(assert (forall ((?v0 S2) (?v1 S2)) (let ((?v_3 (f8 f14 f15))) (let ((?v_5 (f26 f27 (f8 f13 ?v_3))) (?v_1 (f8 f14 ?v_3))) (let ((?v_0 (f26 f27 ?v_1)) (?v_2 (f35 f36 ?v0)) (?v_4 (f9 f11 (f8 f12 ?v_1))) (?v_6 (f35 f36 ?v1))) (= (f34 (f35 f36 (f8 (f9 f10 ?v0) ?v1)) ?v_0) (f8 (f9 f10 (f8 (f9 f10 (f8 (f9 f10 (f34 ?v_2 ?v_0)) (f8 (f9 f11 (f8 ?v_4 (f34 ?v_2 ?v_5))) ?v1))) (f8 (f9 f11 (f8 ?v_4 ?v0)) (f34 ?v_6 ?v_5)))) (f34 ?v_6 ?v_0))))))))
(assert (forall ((?v0 S2) (?v1 S2)) (let ((?v_0 (f18 f19 ?v1))) (=> (= (f3 (f4 f7 (f8 f12 (f8 f13 (f8 f14 f15)))) ?v0) f1) (=> (= (f3 (f4 ?v_0 (f8 f12 f37)) ?v0) f1) (not (= (f3 (f4 ?v_0 f17) ?v0) f1)))))))
(assert (forall ((?v0 S2)) (= (f8 (f9 f11 f6) ?v0) f6)))
(assert (forall ((?v0 S9)) (= (f22 (f23 f32 f33) ?v0) f33)))
(assert (forall ((?v0 S2)) (= (f8 (f9 f11 ?v0) f6) f6)))
(assert (forall ((?v0 S9)) (= (f22 (f23 f32 ?v0) f33) f33)))
(assert (forall ((?v0 S2) (?v1 S2)) (= (= (f8 (f9 f11 ?v0) ?v1) f6) (or (= ?v0 f6) (= ?v1 f6)))))
(assert (forall ((?v0 S2) (?v1 S2)) (=> (not (= ?v0 f6)) (=> (not (= ?v1 f6)) (not (= (f8 (f9 f11 ?v0) ?v1) f6))))))
(assert (forall ((?v0 S9) (?v1 S9)) (=> (not (= ?v0 f33)) (=> (not (= ?v1 f33)) (not (= (f22 (f23 f32 ?v0) ?v1) f33))))))
(assert (forall ((?v0 S2) (?v1 S2)) (=> (= (f8 (f9 f11 ?v0) ?v1) f6) (or (= ?v0 f6) (= ?v1 f6)))))
(assert (forall ((?v0 S9) (?v1 S9)) (=> (= (f22 (f23 f32 ?v0) ?v1) f33) (or (= ?v0 f33) (= ?v1 f33)))))
(assert (not (= f17 f6)))
(assert (not (= f25 f33)))
(assert (not (= f6 f17)))
(assert (not (= f33 f25)))
(assert (forall ((?v0 S2) (?v1 S2) (?v2 S2)) (= (f8 (f9 f11 (f8 (f9 f10 ?v0) ?v1)) ?v2) (f8 (f9 f10 (f8 (f9 f11 ?v0) ?v2)) (f8 (f9 f11 ?v1) ?v2)))))
(assert (forall ((?v0 S9) (?v1 S9) (?v2 S9)) (= (f22 (f23 f32 (f22 (f23 f24 ?v0) ?v1)) ?v2) (f22 (f23 f24 (f22 (f23 f32 ?v0) ?v2)) (f22 (f23 f32 ?v1) ?v2)))))
(assert (forall ((?v0 S2) (?v1 S2) (?v2 S2) (?v3 S2)) (= (f8 (f9 f10 (f8 (f9 f11 ?v0) ?v1)) (f8 (f9 f10 (f8 (f9 f11 ?v2) ?v1)) ?v3)) (f8 (f9 f10 (f8 (f9 f11 (f8 (f9 f10 ?v0) ?v2)) ?v1)) ?v3))))
(assert (forall ((?v0 S9) (?v1 S9) (?v2 S9) (?v3 S9)) (= (f22 (f23 f24 (f22 (f23 f32 ?v0) ?v1)) (f22 (f23 f24 (f22 (f23 f32 ?v2) ?v1)) ?v3)) (f22 (f23 f24 (f22 (f23 f32 (f22 (f23 f24 ?v0) ?v2)) ?v1)) ?v3))))
(assert (= f25 (f26 f27 (f8 f14 f15))))
(assert (= (f26 f27 (f8 f14 f15)) f25))
(assert (forall ((?v0 S2) (?v1 S2)) (= (= (f28 (f29 f31 (f26 f27 ?v0)) (f26 f27 ?v1)) f1) (ite (= (f3 (f4 f7 ?v0) ?v1) f1) (= (f3 (f4 f7 f15) ?v1) f1) false))))
(assert (forall ((?v0 S2) (?v1 S2)) (let ((?v_0 (f4 f5 ?v0))) (= (= (f28 (f29 f30 (f26 f27 ?v0)) (f26 f27 ?v1)) f1) (ite (= (f3 ?v_0 ?v1) f1) true (= (f3 ?v_0 f15) f1))))))
(assert (forall ((?v0 S2) (?v1 S1) (?v2 S1)) (let ((?v_0 (= (f3 (f4 f5 f6) ?v0) f1)) (?v_1 (= ?v1 f1)) (?v_2 (= ?v2 f1))) (=> (=> ?v_0 (= ?v_1 ?v_2)) (= (and ?v_0 ?v_1) (and ?v_0 ?v_2))))))
(assert (forall ((?v0 S2) (?v1 S1) (?v2 S1)) (let ((?v_0 (= (f3 (f4 f5 f6) ?v0) f1)) (?v_1 (= ?v1 f1)) (?v_2 (= ?v2 f1))) (=> (=> ?v_0 (= ?v_1 ?v_2)) (= (=> ?v_0 ?v_1) (=> ?v_0 ?v_2))))))
(assert (forall ((?v0 S2)) (= (f3 (f4 (f18 f19 ?v0) f6) ?v0) f1)))
(assert (forall ((?v0 S2) (?v1 S2) (?v2 S2) (?v3 S2) (?v4 S2)) (let ((?v_0 (f18 f19 ?v3))) (=> (= (f3 (f4 (f18 f19 ?v0) ?v1) ?v2) f1) (= (= (f3 (f4 ?v_0 (f8 (f9 f11 ?v0) ?v4)) ?v2) f1) (= (f3 (f4 ?v_0 (f8 (f9 f11 ?v1) ?v4)) ?v2) f1))))))
(check-sat)
(exit)
